NAME : Data/eil76.tsp
COMMENT : Optimal tour for Data/eil76.tsp (tourLength = 579.6519204234273)
TYPE : TOUR
DIMENSION : 76
TOUR_SECTION
13
54
19
14
59
11
66
65
31
25
55
18
50
3
44
32
9
39
72
58
10
38
53
7
35
8
46
34
52
27
45
29
48
30
4
68
75
76
67
26
12
40
17
51
6
2
74
28
62
73
33
63
16
49
24
56
23
1
43
41
42
64
22
61
69
21
47
5
37
36
71
60
70
20
15
57
-1
EOF